8 25
2 33
21 15
70 39
30 95
99 32
12 164
19 36
73 22
59 32
14 30
62 29
26 43
99 23
5 18
18 6
24 166
87 55
27 117
20 3
22 122
1 10
8 194
4 147
96 52
9 88
34 25
41 133
23 79
70 24
50 78
4 114
44 15
15 159
27 184
21 5
20 113
2 27
9 187
28 194
20 151
52 64
50 43
25 154
20 94
29 62
35 28
70 24
31 83
67 6
